100
32
5
16
15
7
14
7
11
12
8
15
7
1
6
12
9
29
18
32
16
8
3
24
8
1
4
10
7
19
12
19
7
2
13
8
3
27
25
7
24
20
13
26
9
20
8
8
13
2
26
32
18
10
1
14
13
2
26
21
26
24
4
11
20
15
7
8
15
10
29
4
5
15
8
21
9
30
20
4
17
16
8
6
9
10
4
17
2
16
6
25
32
1
11
31
2
6
4
15
27
7